CapLotSizing_PM/src/Instancias/NCHSHT/25i18p2m/NBA07.dat
25 18 2
 1
      4774
      4774
    2
     3
     3
     4
     3
     3
     3
     4
     3
     3
     2
     4
     4
     3
     3
     3
     3
     4
     3
     3
     2
     4
     3
     4
     3
   3.6  25.3   429    23 
  1.7  25.8   293    18 
  2.4  55.3   929    19 
  3.9  54.9   343    24 
  3.9  30.3   444    22 
  3.3  31.0   494    22 
  1.2  42.7   392    18 
  2.2  70.0   742    18 
  2.4  47.8   220    20 
  4.3  26.0   224    24 
  3.1  29.8   697    19 
  2.0  55.4   759    17 
  1.3  57.0    84    25 
  2.5  34.3   227    25 
  2.6  42.8   679    24 
  4.9  50.0   623    20 
  4.6  50.1   819    17 
  1.7  46.5   390    15 
  2.4  62.4   625    18 
  2.4  41.8   529    15 
  4.9  25.1   118    16 
  4.4  23.5   301    21 
  2.0  46.3   572    18 
  1.9  40.3   868    15 
  4.2  24.3   316    21 
  3.6  23.8   190    16 
  3.8  71.7   759    20 
  3.0  68.3   136    24 
  2.2  70.6   838    21 
  1.0  62.3   540    24 
  1.1  70.1   873    22 
  1.8  41.7   939    20 
  4.4  59.4   794    16 
  4.7  19.1   460    19 
  4.2  30.5   527    23 
  2.4  33.9   232    23 
  3.4  64.1   197    23 
  4.3  34.2   256    23 
  3.8  74.7   824    19 
  2.9  45.7   816    23 
  3.6  18.3   706    25 
  3.3  37.2   124    19 
  3.8  74.4   827    23 
  2.1  53.4   375    22 
  2.2  59.9   455    18 
  1.9  56.0   416    15 
  3.7  20.8   359    24 
  1.6  69.7   891    23 
  2.0  60.9   360    23 
  1.7  26.9   600    25 
   40    85     0   160    35   124     8   127   107    94    15   114    41    56   173 
   78   134   152   142   121   143   105   106   147    81    86   159    84    42    24 
  116    67    55   159    61   152    97   114   159    40   119   168   120   161    43 
   37   111     9   156   139   118   117    30   177    45    71    94    67   119    74 
  177    64   175   136    48   111   145   174    97   101   178    27   166   105    87 
   11    66    69    77    41    59   131    86    79    96     6    92    88    32   144 
   87    47    45    21   115    99   124    95    72   133   151   107    60    35   128 
  177    46     3   170    68    44    37     3   140   113     9    47   138   159    92 
   23    68   174   179    77    92    24   153   113   176    32    12    54    89    71 
   99    15    59   114    12    83     3    41   109   158    60   149    87    64    90 
   72    37    61    74   128    59   136    82   132     3   158    60    72    95    12 
   19   159    75   152    59    43    66    82    61    65    92    56   150    19    66 
  122    82    54    25   131    12    23   138    96    42    42   128    25    52    46 
   71   150     3   141    77   146     3   167   134   117   119   157    34   112   176 
   59     0   126    17    51    22    27    91   120   144    56   122    10     3   121 
  145   121   109   164    52   147   164    31   170   127   154    18   157   166    47 
  173    60   113   163     2   168   163    13   150    76    74    95   160   105    86 
  175    45    90   141    74   141    73   105    24   126    88   163   118   115   166 
  127    52     6   101   153   162    66    30    18   122 
  109   154   167    73   167   145   120     5   173   100 
  136   135   173    55    16   124    61   142    49    30 
    7    74   146    13    54   169    70    48    37    54 
  167   152    25     4    71   142    47   120   105    71 
   67    94    69   111   162   101    66    66    74    82 
   85    35    90    75    68    20    80   101    46   132 
   20   141    68    11   178    62    47    88   169   152 
  171    51    28   106   111    31    34    68    81   168 
   18    86   116    95   107   137   122    46   140   156 
  122    42    79   156   106    78    15   140    62    74 
   81    51   100   160    46   148    71     4   146   114 
    2    25    39    21    71    56    81    62    24   141 
  104    11    21    12   173    90   122    94   133   166 
  176    27    65    32    26   165    87   126    79   136 
  175   115    45    62   122   105    70    77    95    37 
    6    16    30    86   127   160   148   137   126    28 
   29   127   117    84    39    41     5   110    19    50 
